10 7 7
3  7 1 1 2 4 3 6 4 9 5 3 6 5 7 2 7 1 8 2 9 3 5 4 4 5 1 6 1 7 3 7 1 4 2 8 3 10 4 4 5 11 6 4 7 3
2  7 1 6 2 9 3 8 4 6 5 5 6 10 7 3 7 1 2 2 10 3 4 4 5 5 9 6 8 7 4
3  7 1 15 2 4 3 8 4 4 5 8 6 7 7 1 7 1 9 2 6 3 1 4 10 5 7 6 1 7 6 7 1 11 2 2 3 7 4 5 5 2 6 3 7 14
3  7 1 2 2 8 3 5 4 8 5 9 6 4 7 3 7 1 5 2 3 3 8 4 1 5 9 6 3 7 6 7 1 1 2 2 3 6 4 4 5 1 6 7 7 2
3  7 1 7 2 1 3 8 4 5 5 4 6 3 7 9 7 1 2 2 4 3 5 4 10 5 6 6 4 7 9 7 1 5 2 1 3 7 4 1 5 6 6 6 7 2
3  7 1 8 2 7 3 4 4 56 5 9 6 8 7 4 7 1 5 2 14 3 1 4 9 5 6 6 5 7 8 7 1 3 2 5 3 2 4 5 5 4 6 5 7 7
3  7 1 5 2 6 3 3 4 6 5 5 6 15 7 2 7 1 6 2 5 3 4 4 9 5 5 6 4 7 3 7 1 9 2 8 3 2 4 8 5 6 6 1 7 7
3  7 1 6 2 1 3 4 4 1 5 10 6 4 7 3 7 1 11 2 13 3 9 4 8 5 9 6 10 7 8 7 1 4 2 2 3 7 4 8 5 3 6 10 7 7
3  7 1 12 2 5 3 4 4 5 5 4 6 5 7 5 7 1 4 2 2 3 15 4 99 5 4 6 7 7 3 7 1 9 2 5 3 11 4 2 5 5 6 4 7 2
3  7 1 9  2 4 3 13 4 10 5 7 6 6 7 8 7 1 4 2 3 3 25 4 3 5 8 6 1 7 2 7 1 1 2 2 3 6 4 11 5 13 6 3 7 5
